31 31
19
3 3   25 6 
3 4   3 0 
3 5   28 0 
3 6   25 0 
3 7   28 15
3 8   0 0 
3 9   28 22
3 10  28 5 
3 11  0 8 
3 12  0 19
3 13  3 4 
3 14  3 17
3 22  25 9 
3 31  6 0 
4 3   9 0 
4 7   9 3 
4 8   9 23
4 13  9 10
12 31  13 0 
